INPUT_PARAMETERS
#Parameters	(General)
#pseudo_dir ../../../tests/PP_ORB	
pseudo_dir .
orbital_dir ../../../tests/PP_ORB
symmetry 1	
#Parameters (Accuracy)
basis_type pw
ecutwfc 60
scf_thr 1e-8
scf_nmax 100
init_wfc random
psi_initializer 0
nbands 30
