INPUT_PARAMETERS
pseudo_dir .
orbital_dir ../../../../tests/PP_ORB
basis_type pw
ecutwfc 60
scf_thr 1e-8
scf_nmax 1

init_wfc random
psi_initializer 0
ks_solver dav
wfc_dump 1